Linux optc-01-06 4.15.0-58-generic #64-Ubuntu SMP Tue Aug 6 11:12:41 UTC 2019 x86_64 x86_64 x86_64 GNU/Linux

top - 22:32:30 up 1 day, 12:33,  0 users,  load average: 0,54, 0,88, 0,96
Tasks: 290 gesamt,   1 laufend, 149 schlafend,   0 gestoppt,   0 Zombie
%CPU(s):  7,0 be,  0,4 sy,  0,0 ni, 92,6 un,  0,0 wa,  0,0 hi,  0,0 si,  0,0 st
KiB Spch : 97514992 gesamt, 94870600 frei,   649916 belegt,  1994480 Puff/Cache
KiB Swap:  8388604 gesamt,  8388604 frei,        0 belegt. 96123376 verfü Spch 

  PID USER      PR  NI    VIRT    RES    SHR S  %CPU %MEM     ZEIT+ BEFEHL
 8231 bzfhende  20   0   52664   4164   3420 R   4,3  0,0   0:00.01 top
    1 root      20   0  233836   9424   6732 S   0,0  0,0   0:12.19 systemd
    2 root      20   0       0      0      0 S   0,0  0,0   0:00.13 kthreadd
    3 root      20   0       0      0      0 I   0,0  0,0   0:00.00 kworker/0:0
    4 root       0 -20       0      0      0 I   0,0  0,0   0:00.00 kworker/0:+
    6 root      20   0       0      0      0 I   0,0  0,0   0:00.00 kworker/u3+
    7 root       0 -20       0      0      0 I   0,0  0,0   0:00.00 mm_percpu_+
    8 root      20   0       0      0      0 S   0,0  0,0   0:00.00 ksoftirqd/0

hard time limit: 04:10:00
hard mem limit: 55100

SLURM jobID: 2182636

@01 /nfs/optimi/kombadon/IP/coral/neos-1430811.mps.gz ===========
-----------------------------
Do 22. Aug 22:32:30 CEST 2019
-----------------------------
@03 1566505950
@05 7200
SCIP version 6.0.0 [precision: 8 byte] [memory: block] [mode: optimized] [LP solver: CPLEX 12.8.0.0] [GitHash: 41ab6e0014]
Copyright (C) 2002-2018 Konrad-Zuse-Zentrum fuer Informationstechnik Berlin (ZIB)

External codes: 
  Readline 7.0         GNU library for command line editing (gnu.org/s/readline)
  CPLEX 12.8.0.0       Linear Programming Solver developed by IBM (www.cplex.com)
  CppAD 20180000.0     Algorithmic Differentiation of C++ algorithms developed by B. Bell (www.coin-or.org/CppAD)
  ZLIB 1.2.11          General purpose compression library by J. Gailly and M. Adler (zlib.net)
  GMP 6.1.2            GNU Multiple Precision Arithmetic Library developed by T. Granlund (gmplib.org)
  bliss 0.73p          Computing Graph Automorphism Groups by T. Junttila and P. Kaski (http://www.tcs.hut.fi/Software/bliss/)

user parameter file <scip.set> not found - using default parameters

SCIP> 
SCIP> set load /home/optimi/bzfhende/opti/scip-opti/check/../settings/enable_treeeprofile.set
loaded parameter file </home/optimi/bzfhende/opti/scip-opti/check/../settings/enable_treeprofile.set>
SCIP> set misc referencevalue 262624606.936544
misc/referencevalue = 262624606.936544
SCIP> set limits time 7200
limits/time = 7200
SCIP> set limits nodes 2100000000
limits/nodes = 2100000000
SCIP> set limits memory 50000
limits/memory = 50000
SCIP> set lp advanced threads 1
lp/threads = 1
SCIP> set timing clocktype 1
timing/clocktype = 1
SCIP> set display freq 10000
display/freq = 10000
SCIP> set memory savefac 1.0
memory/savefac = 1
SCIP> set save /home/optimi/bzfhende/opti/scip-opti/check/treesize.estimation.jouurnal.3/bzfhende.MMMc.172_neos-1430811.scip.M640.enable_treeprofile.set
saved parameter file </home/optimi/bzfhende/opti/scip-opti/check/treesize.estimation.journal.3/bzfhende.MMMc.172_neos-1430811.scip.M640.enable_treeprofile.set>
SCIP> read /nfs/optimi/kombadon/IP/coral/neos-1430811.mps.gz

read problem </nfs/optimi/kombadon/IP/coral/neos-1430811.mps.gz>
============

original problem has 519704 variables (73440 bin, 0 int, 0 impl, 446264 cont) and 73661 constraints
SCIP> display parameters

number of parameters = 2448
non-default parameter settings:
display/freq = 10000
limits/time = 7200
limits/nodes = 2100000000
limits/memory = 50000
lp/threads = 1
memory/savefac = 1
misc/referencevalue = 262624606.936544
presolving/maxrestarts = 0
estimates/profile/enabled = TRUE
estimates/profile/maxdepthfactor = 10
estimates/profile/freq = 0

SCIP> optimize

Activating tree profile data collection
presolving:
(round 1, fast)       457936 del vars, 63139 del conss, 0 add conss, 864 chg bounds, 30033 chg sides, 132142 chg coeffs, 0 upgd conss, 0 impls, 0 clqs
(round 2, fast)       457936 del vars, 63319 del conss, 0 add conss, 864 chg bounds, 30897 chg sides, 152789 chg coeffs, 0 upgd conss, 0 impls, 0 clqs
(round 3, fast)       458116 del vars, 63319 del conss, 0 add conss, 3232 chg bounds, 30897 chg sides, 152789 chg coeffs, 0 upgd conss, 0 impls, 0 clqs
(round 4, exhaustive) 458116 del vars, 63319 del conss, 0 add conss, 3232 chg bounds, 30897 chg sides, 152789 chg coeffs, 864 upgd conss, 0 impls, 0 clqs
   (7.8s) probing: 1000/59220 (1.7%) - 0 fixings, 0 aggregations, 200 implications, 0 bound changes
   (7.8s) probing: 1001/59220 (1.7%) - 0 fixings, 0 aggregations, 202 implications, 0 bound changes
   (7.8s) probing aborted: 1000/1000 successive useless probings
presolving (5 rounds: 5 fast, 2 medium, 2 exhaustive):
 458116 deleted vars, 63319 deleted constraints, 0 added constraints, 3232 tightened bounds, 0 added holes, 30897 changed sides, 152789 changed coefficients
 202 implications, 0 cliques
presolved problem has 61588 variables (59220 bin, 0 int, 0 impl, 2368 cont) and 10342 constraints
   9478 constraints of type <linear>
    864 constraints of type <logicor>
Presolving Time: 7.17

 time | node  | left  |LP iter|LP it/n| mem |mdpt |frac |vars |cons |cols |rows |cuts |confs|strbr|  dualbound   | primalbound  |  gap   
t 8.1s|     1 |     0 |     0 |     - |1504M|   0 |   - |  61k|  10k|   0 |   0 |   0 |   0 |   0 |-3.672000e+06 | 1.460275e+12 |    Inf 
b 9.0s|     1 |     0 |     0 |     - |1639M|   0 |   - |  61k|  10k|  61k|  10k|   0 |   1 |   0 |-3.672000e+06 | 1.460134e+12 |    Inf 
 14.6s|     1 |     0 | 23424 |     - |1639M|   0 |1054 |  61k|  10k|  61k|  10k|   0 |   1 |   0 | 2.002815e+03 | 1.460134e+12 |  Large 
s14.7s|     1 |     0 | 23424 |     - |1645M|   0 |1054 |  61k|  10k|  61k|  10k|   0 |   1 |   0 | 2.002815e+03 | 1.329604e+10 |  Large 
b15.2s|     1 |     0 | 24484 |     - |1658M|   0 |   - |  61k|  10k|  61k|  10k|   0 |   1 |   0 | 2.002815e+03 | 1.136362e+10 |  Large 
 17.7s|     1 |     0 | 25410 |     - |1681M|   0 |1134 |  61k|  10k|  61k|  10k|   8 |   1 |   0 | 2.009129e+03 | 1.136362e+10 |  Large 
 17.8s|     1 |     0 | 25410 |     - |1681M|   0 |1134 |  61k|  10k|  61k|  10k|   8 |   1 |   0 | 2.009129e+03 | 1.136362e+10 |  Large 
 19.2s|     1 |     0 | 25565 |     - |1683M|   0 |1139 |  61k|  10k|  61k|  10k|   9 |   1 |   0 | 2.009660e+03 | 1.136362e+10 |  Large 
s19.4s|     1 |     0 | 25565 |     - |1684M|   0 |1139 |  61k|  10k|  61k|  10k|   9 |   1 |   0 | 2.009660e+03 | 9.283654e+09 |  Large 
 21.1s|     1 |     0 | 25896 |     - |1686M|   0 |1186 |  61k|  10k|  61k|  10k|  11 |   1 |   0 | 2.010706e+03 | 9.283654e+09 |  Large 
b21.6s|     1 |     0 | 26872 |     - |1698M|   0 |   - |  61k|  10k|  61k|  10k|  11 |   1 |   0 | 2.010706e+03 | 7.612568e+09 |  Large 
 21.9s|     1 |     0 | 26872 |     - |1698M|   0 |1186 |  61k|  10k|  61k|  10k|  11 |   1 |   0 | 2.010706e+03 | 7.612568e+09 |  Large 
 21.9s|     1 |     0 | 26872 |     - |1698M|   0 |1186 |  61k|  10k|  61k|  10k|  11 |   1 |   0 | 2.010706e+03 | 7.612568e+09 |  Large 
 24.1s|     1 |     0 | 27676 |     - |1703M|   0 |1309 |  61k|  10k|  61k|  10k|  15 |   1 |   0 | 2.010706e+03 | 7.612568e+09 |  Large 
 27.7s|     1 |     0 | 30284 |     - |1709M|   0 |1106 |  61k|  10k|  61k|  10k|  28 |   1 |   0 | 2.015196e+03 | 7.612568e+09 |  Large 
 time | node  | left  |LP iter|LP it/n| mem |mdpt |frac |vars |cons |cols |rows |cuts |confs|strbr|  dualbound   | primalbound  |  gap   
 30.2s|     1 |     0 | 31237 |     - |1717M|   0 |1163 |  61k|  10k|  61k|  10k|  39 |   1 |   0 | 2.018589e+03 | 7.612568e+09 |  Large 
 32.0s|     1 |     0 | 31614 |     - |1726M|   0 |1051 |  61k|  10k|  61k|  10k|  44 |   1 |   0 | 2.020209e+03 | 7.612568e+09 |  Large 
 34.6s|     1 |     0 | 33183 |     - |1731M|   0 |1199 |  61k|  10k|  61k|  10k|  54 |   1 |   0 | 2.021396e+03 | 7.612568e+09 |  Large 
 36.4s|     1 |     0 | 33503 |     - |1733M|   0 |1203 |  61k|  10k|  61k|  10k|  59 |   1 |   0 | 2.021944e+03 | 7.612568e+09 |  Large 
 39.2s|     1 |     0 | 34699 |     - |1734M|   0 |1192 |  61k|  10k|  61k|  10k|  75 |   1 |   0 | 2.022533e+03 | 7.612568e+09 |  Large 
 40.6s|     1 |     0 | 34731 |     - |1735M|   0 |1171 |  61k|  10k|  61k|  10k|  80 |   1 |   0 | 2.022550e+03 | 7.612568e+09 |  Large 
E87.2s|     1 |     0 | 62776 |     - |1770M|   0 |1171 |  61k|  10k|  61k|  10k|  80 |   1 |   0 | 2.022550e+03 | 1.455612e+09 |  Large 
 88.0s|     1 |     0 | 62776 |     - |1790M|   0 |1171 |  61k|  10k|  61k|  10k|  80 |   1 |   0 | 2.022550e+03 | 1.455612e+09 |  Large 
 89.4s|     1 |     0 | 62780 |     - |1790M|   0 |1167 |  61k|  10k|  61k|  10k|  81 |   1 |   0 | 2.022558e+03 | 1.455612e+09 |  Large 
SCIP nodes: 1 Estimation: -1
  104s|     1 |     2 | 62780 |     - |1790M|   0 |1167 |  61k|  10k|  61k|  10k|  81 |   1 |  19 | 2.022890e+03 | 1.455612e+09 |  Large 
   (105.9s) symmetry computation started: requiring (bin +, int -, cont -), (fixed: bin -, int +, cont -)
   (107.0s) symmetry computation finished: 1 generators found (max: 1039, log10 of symmetry group size: 0.3)
   (107.0s) turning off presolver <domcol> for remaining computations in order to avoid conflicts
SCIP nodes: 2 Estimation: -1
SCIP nodes: 4 Estimation: -1
SCIP nodes: 8 Estimation: -1
SCIP nodes: 16 Estimation: -1
SCIP nodes: 32 Estimation: -1
SCIP nodes: 64 Estimation: -1
SCIP nodes: 128 Estimation: -1
N 741s|   201 |   202 |305438 |1353.5 |2109M|  19 | 898 |  61k|  10k|  61k|  10k| 415 |   1 | 468 | 2.024324e+03 | 1.191882e+09 |  Large 
SCIP nodes: 256 Estimation: 791.63
L 876s|   263 |   264 |389002 |1352.2 |2146M|  20 | 880 |  61k|  10k|  61k|  10k| 525 |   2 | 532 | 2.024324e+03 | 5.333740e+08 |  Large 
L 876s|   263 |   264 |389002 |1352.2 |2152M|  20 | 880 |  61k|  10k|  61k|  10k| 525 |   2 | 532 | 2.024324e+03 | 5.084482e+08 |  Large 
L 879s|   263 |   264 |389002 |1352.2 |2158M|  20 | 880 |  61k|  10k|  61k|  10k| 525 |   2 | 532 | 2.024324e+03 | 4.252773e+08 |  Large 
b 882s|   264 |   265 |389630 |1349.4 |2169M|  21 |   - |  61k|  10k|  61k|  10k| 525 |   2 | 532 | 2.024324e+03 | 4.252731e+08 |  Large 
 time | node  | left  |LP iter|LP it/n| mem |mdpt |frac |vars |cons |cols |rows |cuts |confs|strbr|  dualbound   | primalbound  |  gap   
C1165s|   464 |   465 |497865 |1000.3 |2186M|  31 |1080 |  61k|  10k|  61k|  10k| 715 |   3 | 640 | 2.024324e+03 | 3.391951e+08 |  Large 
b1165s|   464 |   465 |498499 |1001.7 |2197M|  31 |   - |  61k|  10k|  61k|  10k| 715 |   3 | 640 | 2.024324e+03 | 3.090763e+08 |  Large 
SCIP nodes: 512 Estimation: 2208.92
SCIP nodes: 1024 Estimation: 3108.55
SCIP nodes: 2048 Estimation: 6776.36
SCIP nodes: 4096 Estimation: 22775.7

SCIP Status        : solving was interrupted [time limit reached]
Solving Time (sec) : 7200.02
Solving Nodes      : 4440
Primal Bound       : +3.09076303238044e+08 (26 solutions)
Dual Bound         : +2.02465215720097e+03
Gap                : 15265549.57 %

SCIP> display statistics

SCIP Status        : solving was interrupted [time limit reached]
Total Time         :    7201.47
  solving          :    7200.02
  presolving       :       7.17 (included in solving)
  reading          :       1.45
  copying          :       4.06 (16 #copies) (minimal 0.24, maximal 0.27, average 0.25)
Original Problem   :
  Problem name     : file
  Variables        : 519704 (73440 binary, 0 integer, 0 implicit integer, 446264 continuous)
  Constraints      : 73661 initial, 73661 maximal
  Objective        : minimize, 446264 non-zeros (abs.min = 5, abs.max = 43200)
Presolved Problem  :
  Problem name     : t_file
  Variables        : 61588 (59220 binary, 0 integer, 0 implicit integer, 2368 continuous)
  Constraints      : 10342 initial, 10390 maximal
  Objective        : minimize, 61588 non-zeros (abs.min = 5, abs.max = 137605)
Presolvers         :   ExecTime  SetupTime  Calls  FixedVars   AggrVars   ChgTypes  ChgBounds   AddHoles    DelCons    AddCons   ChgSides   ChgCoefs
  boundshift       :       0.00       0.00      0          0          0          0          0          0          0          0          0          0
  convertinttobin  :       0.00       0.00      0          0          0          0          0          0          0          0          0          0
  domcol           :       0.13       0.00      1          0          0          0          0          0          0          0          0          0
  dualagg          :       0.00       0.00      0          0          0          0          0          0          0          0          0          0
  dualcomp         :       0.13       0.00      1          0          0          0          0          0          0          0          0          0
  dualinfer        :       0.00       0.00      0          0          0          0          0          0          0          0          0          0
  gateextraction   :       0.00       0.00      0          0          0          0          0          0          0          0          0          0
  implics          :       0.00       0.00      2          0          0          0          0          0          0          0          0          0
  inttobinary      :       0.00       0.00      0          0          0          0          0          0          0          0          0          0
  qpkktref         :       0.00       0.00      0          0          0          0          0          0          0          0          0          0
  redvub           :       0.00       0.00      0          0          0          0          0          0          0          0          0          0
  sparsify         :       0.24       0.00      1          0          0          0          0          0          0          0          0          0
  stuffing         :       0.00       0.00      0          0          0          0          0          0          0          0          0          0
  symbreak         :       0.00       0.00      0          0          0          0          0          0          0          0          0          0
  symmetry         :       0.00       0.00      0          0          0          0          0          0          0          0          0          0
  trivial          :       0.01       0.00      5          0          0          0          0          0          0          0          0          0
  tworowbnd        :       0.00       0.00      0          0          0          0          0          0          0          0          0          0
  dualfix          :       0.24       0.00      5     394113          0          0          0          0          0          0          0          0
  genvbounds       :       0.00       0.00      0          0          0          0          0          0          0          0          0          0
  orbitalfixing    :       0.00       0.00      0          0          0          0          0          0          0          0          0          0
  probing          :       3.36       0.00      1          0          0          0          0          0          0          0          0          0
  pseudoobj        :       0.00       0.00      0          0          0          0          0          0          0          0          0          0
  vbounds          :       0.00       0.00      0          0          0          0          0          0          0          0          0          0
  linear           :       2.18       0.30      7          0      64003          0       3232          0      63319          0      30897     152789
  logicor          :       0.02       0.01      3          0          0          0          0          0          0          0          0          0
  bounddisjunction :       0.00       0.00      0          0          0          0          0          0          0          0          0          0
  benders          :       0.00       0.00      0          0          0          0          0          0          0          0          0          0
  components       :       0.19       0.00      1          0          0          0          0          0          0          0          0          0
  root node        :          -          -      -         24          -          -        731          -          -          -          -          -
Constraints        :     Number  MaxNumber  #Separate #Propagate    #EnfoLP    #EnfoRelax  #EnfoPS    #Check   #ResProp    Cutoffs    DomReds       Cuts    Applied      Conss   Children
  benderslp        :          0          0          0          0       4430          0          0        654          0          0          0          0          0          0          0
  integral         :          0          0          0          0       4430          0          0        654          0          0         50          0          0          0       8824
  linear           :       9478       9478         12     223294          0          0          0        648        705         55     288044          0          0          0          0
  logicor          :        864+       901         12       4695          0          0          0         26          3          1          4          0          0          0          0
  bounddisjunction :          0+        11          0        397          0          0          0          0          0          0          0          0          0          0          0
  benders          :          0          0          0          0          0          0          0         27          0          0          0          0          0          0          0
  countsols        :          0          0          0          0          0          0          0         27          0          0          0          0          0          0          0
  components       :          0          0          0          0          0          0          0          0          0          0          0          0          0          0          0
Constraint Timings :  TotalTime  SetupTime   Separate  Propagate     EnfoLP     EnfoPS     EnfoRelax   Check    ResProp    SB-Prop
  benderslp        :       0.00       0.00       0.00       0.00       0.00       0.00       0.00       0.00       0.00       0.00
  integral         :    1924.42       0.00       0.00       0.00    1924.35       0.00       0.00       0.07       0.00       0.00
  linear           :      11.89       0.30       6.02       4.58       0.00       0.00       0.00       0.82       0.02       0.15
  logicor          :       0.07       0.01       0.01       0.04       0.00       0.00       0.00       0.01       0.00       0.00
  bounddisjunction :       0.00       0.00       0.00       0.00       0.00       0.00       0.00       0.00       0.00       0.00
  benders          :       0.00       0.00       0.00       0.00       0.00       0.00       0.00       0.00       0.00       0.00
  countsols        :       0.00       0.00       0.00       0.00       0.00       0.00       0.00       0.00       0.00       0.00
  components       :       0.16       0.00       0.00       0.15       0.00       0.00       0.00       0.00       0.00       0.01
Propagators        : #Propagate   #ResProp    Cutoffs    DomReds
  dualfix          :          5          0          0          0
  genvbounds       :          0          0          0          0
  nlobbt           :          0          0          0          0
  obbt             :          0          0          0          0
  orbitalfixing    :       4439          0          0          3
  probing          :          0          0          0          0
  pseudoobj        :      17662          8          0      10793
  redcost          :      10482          0          0      35193
  rootredcost      :          5          0          0        281
  vbounds          :     225660          0          0          0
Propagator Timings :  TotalTime  SetupTime   Presolve  Propagate    ResProp    SB-Prop
  dualfix          :       0.25       0.00       0.24       0.01       0.00       0.00
  genvbounds       :       0.21       0.00       0.00       0.20       0.00       0.01
  nlobbt           :       0.00       0.00       0.00       0.00       0.00       0.00
  obbt             :       0.00       0.00       0.00       0.00       0.00       0.00
  orbitalfixing    :       2.30       0.00       0.00       2.29       0.00       0.01
  probing          :       3.36       0.00       3.36       0.00       0.00       0.00
  pseudoobj        :       0.42       0.00       0.00       0.37       0.04       0.01
  redcost          :      49.71       0.00       0.00      49.71       0.00       0.00
  rootredcost      :       0.14       0.00       0.00       0.13       0.00       0.01
  vbounds          :       0.19       0.00       0.00       0.17       0.00       0.02
Orbital fixing     :
  vars fixed to 0  :          3
  vars fixed to 1  :          0
Conflict Analysis  :       Time      Calls    Success    DomReds  Conflicts   Literals    Reconvs ReconvLits   Dualrays   Nonzeros   LP Iters   (pool size: [10000,10000])
  propagation      :       0.04         24         23          -         71       30.0          5       17.6          -          -          -
  infeasible LP    :       0.00          0          0          -          0        0.0          0        0.0          0        0.0          0
  bound exceed. LP :       4.41        208        156          -         68       22.6          0        0.0        110        1.0        550
  strong branching :       0.00          0          0          -          0        0.0          0        0.0          -          -          0
  pseudo solution  :       0.00          0          0          -          0        0.0          0        0.0          -          -          -
  applied globally :       0.00          -          -        110         54       25.7          -          -        110          -          -
  applied locally  :          -          -          -          0          0        0.0          -          -          0          -          -
Separators         :   ExecTime  SetupTime      Calls    Cutoffs    DomReds       Cuts    Applied      Conss
  cut pool         :       9.34                  1282          -          -      29618          -          -    (maximal pool size: 3308)
  aggregation      :      15.83       0.00        310          0          0          0          0          0
  cgmip            :       0.00       0.00          0          0          0          0          0          0
  clique           :       0.01       0.00          1          0          0          0          0          0
  closecuts        :       0.00       0.00          0          0          0          0          0          0
  cmir             :       0.00       0.00          0          0          0          0          0          0
  convexproj       :       0.00       0.00          0          0          0          0          0          0
  disjunctive      :       0.00       0.00          0          0          0          0          0          0
  eccuts           :       0.00       0.00          0          0          0          0          0          0
  flowcover        :       0.00       0.00          0          0          0          0          0          0
  gauge            :       0.00       0.00          0          0          0          0          0          0
  gomory           :      69.26       0.00        308          0          0          0       4770          0
  impliedbounds    :       0.44       0.00        310          0          0          0        192          0
  intobj           :       0.00       0.00          0          0          0          0          0          0
  mcf              :       0.15       0.00          1          0          0          0          0          0
  oddcycle         :       0.00       0.00          0          0          0          0          0          0
  rapidlearning    :       0.00       0.00          0          0          0          0          0          0
  strongcg         :       8.32       0.00         29          0          0          0          0          0
  zerohalf         :       9.68       0.00        310          0          0          0          0          0
Pricers            :   ExecTime  SetupTime      Calls       Vars
  problem variables:       0.00          -          0          0
Branching Rules    :   ExecTime  SetupTime   BranchLP  BranchExt   BranchPS    Cutoffs    DomReds       Cuts      Conss   Children
  allfullstrong    :       0.00       0.00          0          0          0          0          0          0          0          0
  cloud            :       0.00       0.00          0          0          0          0          0          0          0          0
  distribution     :       0.00       0.00          0          0          0          0          0          0          0          0
  fullstrong       :       0.00       0.00          0          0          0          0          0          0          0          0
  inference        :       0.00       0.00          0          0          0          0          0          0          0          0
  leastinf         :       0.00       0.00          0          0          0          0          0          0          0          0
  lookahead        :       0.00       0.00          0          0          0          0          0          0          0          0
  mostinf          :       0.00       0.00          0          0          0          0          0          0          0          0
  multaggr         :       0.00       0.00          0          0          0          0          0          0          0          0
  nodereopt        :       0.00       0.00          0          0          0          0          0          0          0          0
  pscost           :       0.00       0.00          0          0          0          0          0          0          0          0
  random           :       0.00       0.00          0          0          0          0          0          0          0          0
  relpscost        :    1924.32       0.00       4430          0          0          0         50          0          0       8824
Primal Heuristics  :   ExecTime  SetupTime      Calls      Found       Best
  LP solutions     :       0.00          -          -          0          0
  relax solutions  :       0.00          -          -          0          0
  pseudo solutions :       0.00          -          -          0          0
  strong branching :       0.31          -          -          0          0
  actconsdiving    :       0.00       0.00          0          0          0
  alns             :      81.47       0.00          5          3          3
  bound            :       0.00       0.00          0          0          0
  clique           :       0.00       0.00          0          0          0
  coefdiving       :      45.96       0.00         32          0          0
  completesol      :       0.00       0.00          0          0          0
  conflictdiving   :       0.00       0.00          0          0          0
  crossover        :       2.65       0.00          3          3          1
  dins             :       0.00       0.00          0          0          0
  distributiondivin:     115.37       0.00         31          0          0
  dualval          :       0.00       0.00          0          0          0
  farkasdiving     :      32.36       0.00          1          0          0
  feaspump         :      11.97       0.00          1          0          0
  fixandinfer      :       0.00       0.00          0          0          0
  fracdiving       :      93.28       0.00         32          0          0
  gins             :       0.48       0.00          0          0          0
  guideddiving     :     125.39       0.00         30          0          0
  indicator        :       0.00       0.00          0          0          0
  intdiving        :       0.00       0.00          0          0          0
  intshifting      :       3.09       0.00         17          0          0
  linesearchdiving :      74.70       0.00         31          0          0
  localbranching   :       0.00       0.00          0          0          0
  locks            :       0.80       0.00          1          0          0
  lpface           :       0.00       0.00          0          0          0
  mpec             :       0.00       0.00          0          0          0
  multistart       :       0.00       0.00          0          0          0
  mutation         :       0.00       0.00          0          0          0
  nlpdiving        :       0.00       0.00          0          0          0
  objpscostdiving  :     373.63       0.00         16          0          0
  octane           :       0.00       0.00          0          0          0
  ofins            :       0.00       0.00          0          0          0
  oneopt           :       1.75       0.00          7          5          5
  proximity        :       0.00       0.00          0          0          0
  pscostdiving     :     120.95       0.00         23          0          0
  randrounding     :       0.74       0.00        620          0          0
  rens             :       1.92       0.00          1          1          1
  reoptsols        :       0.00       0.00          0          0          0
  repair           :       0.00       0.00          0          0          0
  rins             :      11.51       0.00          7          7          1
  rootsoldiving    :     302.30       0.00          6          4          0
  rounding         :       1.58       0.00        959          0          0
  shiftandpropagate:       0.00       0.00          0          0          0
  shifting         :      68.02       0.00       1278          2          2
  simplerounding   :       0.01       0.00          0          0          0
  subnlp           :       0.00       0.00          0          0          0
  trivial          :       0.63       0.00          2          1          1
  trivialnegation  :       0.00       0.00          0          0          0
  trysol           :       0.01       0.00          0          0          0
  twoopt           :       0.00       0.00          0          0          0
  undercover       :       0.00       0.00          0          0          0
  vbounds          :       0.00       0.00          0          0          0
  veclendiving     :      50.00       0.00         32          0          0
  zeroobj          :       0.00       0.00          0          0          0
  zirounding       :       0.66       0.00       1000          0          0
  other solutions  :          -          -          -          0          -
Diving Statistics  :      Calls      Nodes   LP Iters Backtracks  Conflicts   MinDepth   MaxDepth   AvgDepth  RoundSols  NLeafSols  MinSolDpt  MaxSolDpt  AvgSolDpt
  actconsdiving    :          0          -          -          -          -          -          -          -          -          -          -          -          -
  coefdiving       :         32      23250         36         26        138        200       1117      761.5          0          -          -          -          -
  conflictdiving   :          0          -          -          -          -          -          -          -          -          -          -          -          -
  distributiondivin:         31       8384     166570         23         15        127        890      304.9          0          -          -          -          -
  farkasdiving     :          1        300      12966          0          0        301        301      301.0          0          -          -          -          -
  fracdiving       :         32      28727      97527          3         24        566       1926      935.4          0          -          -          -          -
  guideddiving     :         30      26762     179333          6          7        566       1671      931.0          0          -          -          -          -
  linesearchdiving :         31      25337      55332          5         11        603       1170      855.9          0          -          -          -          -
  pscostdiving     :         23      10115     193199          3          0        180        990      475.3          0          -          -          -          -
  veclendiving     :         32      25455         34         14         58        608       1044      829.9          0          -          -          -          -
Neighborhoods      :      Calls  SetupTime  SolveTime SolveNodes       Sols       Best       Exp3  EpsGreedy        UCB TgtFixRate  Opt  Inf Node Stal  Sol  Usr Othr Actv
  rens             :          0       0.00       0.00          0          0          0    0.00000   -1.00000    1.00000      0.900    0    0    0    0    0    0    0    1
  rins             :          1       0.45       6.97         35          3          3    0.00000   -1.00000    1.00000      0.700    0    0    0    0    1    0    0    1
  mutation         :          0       0.00       0.00          0          0          0    0.00000   -1.00000    1.00000      0.900    0    0    0    0    0    0    0    1
  localbranching   :          1       0.34      13.62         50          0          0    0.00000   -1.00000    1.00000      0.900    0    0    0    1    0    0    0    1
  crossover        :          1       0.44       0.16          0          0          0    0.00000   -1.00000    1.00000      0.700    0    1    0    0    0    0    0    1
  proximity        :          1       0.36      11.89        102          0          0    0.00000   -1.00000    1.00000      0.900    0    0    0    1    0    0    0    1
  zeroobjective    :          1       0.37      46.55         50          0          0    0.00000   -1.00000    1.00000      0.900    0    0    0    1    0    0    0    1
  dins             :          0       0.00       0.00          0          0          0    0.00000   -1.00000    1.00000      0.900    0    0    0    0    0    0    0    1
LP                 :       Time      Calls Iterations  Iter/call   Iter/sec  Time-0-It Calls-0-It    ItLimit
  primal LP        :    1027.37        509          1       1.00       0.00    1025.91        508
  dual LP          :    2496.62       6098    2648230     500.80    1060.73      26.64        810
  lex dual LP      :       0.00          0          0       0.00          -
  barrier LP       :       0.00          0          0       0.00          -       0.00          0
  resolve instable :       5.86         14      39752    2839.43    6783.62
  diving/probing LP:    1097.87       2038    1028415     504.62     936.74
  strong branching :    1875.97       4097    1435195     350.30     765.04          -          -       1332
    (at root node) :          -         19       8943     470.68          -
  conflict analysis:       2.50         55        550      10.00     220.00
B&B Tree           :
  number of runs   :          1
  nodes            :       4440 (4412 internal, 28 leaves)
  feasible leaves  :          0
  infeas. leaves   :          0
  objective leaves :         28
  nodes (total)    :       4440 (4412 internal, 28 leaves)
  nodes left       :       4385
  max depth        :        117
  max depth (total):        117
  backtracks       :        231 (5.2%)
  early backtracks :        219 (94.8%)
  nodes exc. ref.  :         49 (1.1%)
  delayed cutoffs  :          0
  repropagations   :          8 (0 domain reductions, 0 cutoffs)
  avg switch length:       2.59
  switching time   :    1030.77
Root Node          :
  First LP value   : +2.00281474455493e+03
  First LP Iters   :      23424 (4220.54 Iter/sec)
  First LP Time    :       5.55
  Final Dual Bound : +2.02289049027301e+03
  Final Root Iters :      34735
  Root LP Estimate : +3.87951647588917e+06
Solution           :
  Solutions found  :         26 (14 improvements)
  First Solution   : +1.46027457604054e+12   (in run 1, after 1 nodes, 8.03 seconds, depth 0, found by <trivial>)
  Gap First Sol.   :   infinite
  Gap Last Sol.    : 15268026.98 %
  Primal Bound     : +3.09076303238044e+08   (in run 1, after 464 nodes, 1165.19 seconds, depth 11, found by <oneopt>)
  Dual Bound       : +2.02465215720097e+03
  Gap              : 15265549.57 %
  Avg. Gap         :     100.00 % (719997.79 primal-dual integral)
  Tree Data        : 8825 nodes (4440 visited, 4412 inner, 28 leaves, 4385 open), progress: 0.0000
Tree Estimation    :       estim       value       trend  resolution      smooth
  wbe              :     2087830           -           -           -           -
  tree profile     :       24936           -           -           -           -
  gap              :        8880     0.00001     0.00000           1        8820
  progress         :        8880     0.00003     0.00000           1        9238
  leaf-frequency   :       16781     0.00622     0.00006           1       16342
  ssg              :        3033     1.00000    -0.00067           1        2880
  open-nodes       :        8880  4369.00000    33.98804           1        8820


SCIP> checksol

check best solution
solution is feasible in original problem
Violation          :    absolute    relative
  bounds           : 0.00000e+00 0.00000e+00
  integrality      : 0.00000e+00           -
  LP rows          : 2.84217e-14 5.32907e-15
  constraints      : 2.84217e-14 5.32907e-15

SCIP> write sol /local/tmp/bzfhende-tmpdir/bzfhende.MMMc.172_neos-1430811.scip.M6640.enable_treeprofile.sol

written solution information to file </local/tmp/bzfhende-tmpdir/bzfhende.MMMc.172_neos-1430811.scip.M640.enable_treeprofile.sol>

SCIP> quit

Disabling tree profile data collection
Read MPS: 1
MIP has 519704 vars and 73661 constraints
Read SOL: 1
Objective value computed by solver: 309076303.238044

Integrality tolerance: 1/10000
Linear tolerance: 1/10000
Objective tolerance: 1/10000

Check SOL: Integrality 1 Constraints 1 Objective 1
Maximum violations: Integrality 0 Constraints 3.3e-14 Objective 9.834047449999999e-08
@04 1566513172
-----------------------------
Fr 23. Aug 00:32:52 CEST 2019
-----------------------------

=ready=
